# Solution for model GasLib-40
# Objective value = 5.3342468710045381e+01
loadshed[innode_1] 0
loadshed[innode_2] 0
loadshed[innode_3] 0
loadshed[innode_4] 0
loadshed[innode_5] 0
loadshed[innode_6] 0
loadshed[innode_7] 0
loadshed[innode_8] 0
loadshed[source_1] -1.8347539977739080e-01
loadshed[source_2] 1.8379847829672114e-01
loadshed[source_3] 3.3709468973197421e-01
loadshed[sink_1] 3.9568217576954667e-01
loadshed[sink_2] 0
loadshed[sink_3] 0
loadshed[sink_4] 0
loadshed[sink_5] 0
loadshed[sink_6] 0
loadshed[sink_7] 0
loadshed[sink_8] 0
loadshed[sink_9] 0
loadshed[sink_10] 0
loadshed[sink_11] 0
loadshed[sink_12] 1
loadshed[sink_13] 0
loadshed[sink_14] 0
loadshed[sink_15] 0
loadshed[sink_16] 0
loadshed[sink_17] 0
loadshed[sink_18] 0
loadshed[sink_19] 0
loadshed[sink_20] 0
loadshed[sink_21] 1
loadshed[sink_22] 0
loadshed[sink_23] 0
loadshed[sink_24] 8.6602291732876935e-01
loadshed[sink_25] 0
loadshed[sink_26] 0
loadshed[sink_27] 0
loadshed[sink_28] 0
loadshed[sink_29] 0
flow[source_1,sink_3] 1.8709595469397431e+02
flow[innode_1,sink_16] 1.6354166666666970e+01
flow[innode_6,sink_13] 9.6802820260440114e+00
flow[sink_13,sink_14] -6.6738846406226564e+00
flow[sink_14,sink_10] -2.3028051307289324e+01
flow[sink_25,sink_26] 1.1217167566741237e+02
flow[sink_26,sink_9] 0
flow[sink_9,sink_18] -1.6354166666669244e+01
flow[sink_26,sink_4] 95.8175090007457
flow[sink_4,sink_20] -1.4434572257625680e+01
flow[sink_18,sink_6] -3.2708333333335915e+01
flow[sink_25,innode_8] -1.5438762136063792e+02
flow[sink_6,sink_7] -7.5299781083771421e+01
flow[sink_6,sink_22] 2.6237281083768874e+01
flow[sink_7,sink_24] 2.1910835395190866e+00
flow[sink_22,sink_1] 9.8831144171022061e+00
flow[sink_24,sink_21] 0
flow[sink_21,sink_12] 0
flow[sink_7,sink_5] -9.3845031289957191e+01
flow[sink_5,sink_17] -1.1019919795662386e+02
flow[sink_17,sink_4] -9.3897914591704719e+01
flow[sink_17,sink_8] -3.2655450031585815e+01
flow[sink_3,sink_23] 16.3541666666697
flow[sink_8,sink_20] -4.9009616698252486e+01
flow[sink_25,sink_20] 7.9798355622544790e+01
flow[sink_25,sink_15] -6.3616858622030421e+01
flow[sink_15,sink_29] -9.6325191955381342e+01
flow[sink_29,sink_28] 1.6354166666667879e+01
flow[sink_29,sink_2] 0
flow[sink_2,sink_15] -1.6354166666684250e+01
flow[sink_29,innode_7] -1.2903352528871628e+02
flow[innode_4,sink_19] 8.8444717973956458e+01
flow[sink_19,innode_3] 35.1798847439057
flow[innode_4,innode_5] 1.6354166666679703e+01
flow[sink_27,innode_5] -1.6354166666679703e+01
flow[sink_27,sink_19] 0
flow[sink_10,sink_11] 3.2708333333333641e+01
flow[sink_10,innode_2] -3.6910666563383927e+01
flow[sink_10,innode_3] -35.1798847439057
flow[innode_6,sink_25] -9.6802820260440114e+00
flow[sink_11,innode_1] 1.6354166666666970e+01
flow[sink_19,innode_2] 3.6910666563383927e+01
flow[source_3,innode_4] 1.0479888464063616e+02
flow[source_2,innode_7] 1.2903352528871628e+02
flow[sink_3,innode_8] 1.5438762136063792e+02
pressure[innode_1] 7.5327546634925113e+01
pressure[innode_2] 77.4301291164492
pressure[innode_3] 7.7352227245373612e+01
pressure[innode_4] 81.01325
pressure[innode_5] 8.1002000741808786e+01
pressure[innode_6] 74.4314757424705
pressure[innode_7] 81.01325
pressure[innode_8] 8.0387859696703359e+01
pressure[source_1] 81.01325
pressure[source_2] 81.01325
pressure[source_3] 81.01325
pressure[sink_1] 1.0132500000000002e+00
pressure[sink_2] 74.686686746677
pressure[sink_3] 8.0387859696703359e+01
pressure[sink_4] 5.4348804418847969e+01
pressure[sink_5] 4.2551292036868468e+01
pressure[sink_6] 2.4881908858362087e+00
pressure[sink_7] 3.5218773926039568e+00
pressure[sink_8] 5.1992510708420390e+01
pressure[sink_9] 1.0230385065299710e+00
pressure[sink_10] 7.5479247942528659e+01
pressure[sink_11] 7.5327546634925113e+01
pressure[sink_12] 1.01325
pressure[sink_13] 7.4378109965386329e+01
pressure[sink_14] 7.4390053450439993e+01
pressure[sink_15] 7.4740079496443443e+01
pressure[sink_16] 7.4305896800107433e+01
pressure[sink_17] 5.0760335741955643e+01
pressure[sink_18] 1.6147810003297254e+00
pressure[sink_19] 77.4301291164492
pressure[sink_20] 5.5407791756765313e+01
pressure[sink_21] 1.01325
pressure[sink_22] 1.6561046535914634e+00
pressure[sink_23] 8.0223141685043572e+01
pressure[sink_24] 1.01325
pressure[sink_25] 74.4314757424705
pressure[sink_26] 6.6531290499986625e+01
pressure[sink_27] 8.0866291377726043e+01
pressure[sink_28] 7.7266826413164225e+01
pressure[sink_29] 77.5621086867814
interdiction[source_1,sink_3] 0
interdiction[innode_1,sink_16] 0
interdiction[innode_6,sink_13] 0
interdiction[sink_13,sink_14] 0
interdiction[sink_14,sink_10] 0
interdiction[sink_25,sink_26] 0
interdiction[sink_26,sink_9] 1
interdiction[sink_9,sink_18] 0
interdiction[sink_26,sink_4] 0
interdiction[sink_4,sink_20] 0
interdiction[sink_18,sink_6] 0
interdiction[sink_25,innode_8] 0
interdiction[sink_6,sink_7] 0
interdiction[sink_6,sink_22] 0
interdiction[sink_7,sink_24] 0
interdiction[sink_22,sink_1] 0
interdiction[sink_24,sink_21] 0
interdiction[sink_21,sink_12] 0
interdiction[sink_7,sink_5] 0
interdiction[sink_5,sink_17] 0
interdiction[sink_17,sink_4] 0
interdiction[sink_17,sink_8] 0
interdiction[sink_3,sink_23] 0
interdiction[sink_8,sink_20] 0
interdiction[sink_25,sink_20] 0
interdiction[sink_25,sink_15] 0
interdiction[sink_15,sink_29] 0
interdiction[sink_29,sink_28] 0
interdiction[sink_29,sink_2] 1
interdiction[sink_2,sink_15] 0
interdiction[sink_29,innode_7] 0
interdiction[innode_4,sink_19] 0
interdiction[sink_19,innode_3] 0
interdiction[innode_4,innode_5] 0
interdiction[sink_27,innode_5] 0
interdiction[sink_27,sink_19] 1
interdiction[sink_10,sink_11] 0
interdiction[sink_10,innode_2] 0
interdiction[sink_10,innode_3] 0
interdiction[innode_6,sink_25] 0
interdiction[sink_11,innode_1] 0
interdiction[sink_19,innode_2] 0
interdiction[source_3,innode_4] 0
interdiction[source_2,innode_7] 0
interdiction[sink_3,innode_8] 0
WCcheckFlow[source_1,sink_3] 39
WCcheckFlow[innode_1,sink_16] 1
WCcheckFlow[innode_6,sink_13] 13
WCcheckFlow[sink_13,sink_14] 12
WCcheckFlow[sink_14,sink_10] 11
WCcheckFlow[sink_25,sink_26] 15
WCcheckFlow[sink_26,sink_9] 0
WCcheckFlow[sink_9,sink_18] -1
WCcheckFlow[sink_26,sink_4] 14
WCcheckFlow[sink_4,sink_20] 1
WCcheckFlow[sink_18,sink_6] -2
WCcheckFlow[sink_25,innode_8] -36
WCcheckFlow[sink_6,sink_7] -5
WCcheckFlow[sink_6,sink_22] 2
WCcheckFlow[sink_7,sink_24] 3
WCcheckFlow[sink_22,sink_1] 1
WCcheckFlow[sink_24,sink_21] 2
WCcheckFlow[sink_21,sink_12] 1
WCcheckFlow[sink_7,sink_5] -9
WCcheckFlow[sink_5,sink_17] -10
WCcheckFlow[sink_17,sink_4] -12
WCcheckFlow[sink_17,sink_8] 1
WCcheckFlow[sink_3,sink_23] 1
WCcheckFlow[sink_8,sink_20] 0
WCcheckFlow[sink_25,sink_20] 0
WCcheckFlow[sink_25,sink_15] 6
WCcheckFlow[sink_15,sink_29] 4
WCcheckFlow[sink_29,sink_28] 1
WCcheckFlow[sink_29,sink_2] 0
WCcheckFlow[sink_2,sink_15] -1
WCcheckFlow[sink_29,innode_7] 2
WCcheckFlow[innode_4,sink_19] -4
WCcheckFlow[sink_19,innode_3] -5
WCcheckFlow[innode_4,innode_5] 2
WCcheckFlow[sink_27,innode_5] -1
WCcheckFlow[sink_27,sink_19] 0
WCcheckFlow[sink_10,sink_11] 3
WCcheckFlow[sink_10,innode_2] 1
WCcheckFlow[sink_10,innode_3] 6
WCcheckFlow[innode_6,sink_25] -14
WCcheckFlow[sink_11,innode_1] 2
WCcheckFlow[sink_19,innode_2] 0
WCcheckFlow[source_3,innode_4] -1
WCcheckFlow[source_2,innode_7] -1
WCcheckFlow[sink_3,innode_8] 37
